84
500
394	1
386	1
381	2
375	1
367	1
363	1
356	1
354	1
352	1
351	1
350	1
344	2
343	1
342	2
337	1
336	1
333	1
327	1
322	1
321	1
318	1
315	1
312	2
311	1
308	1
303	1
298	1
290	1
284	1
282	1
281	1
280	1
278	1
276	1
275	1
271	3
256	1
254	2
245	1
236	1
231	1
228	1
223	1
215	1
212	1
205	2
201	1
200	1
198	1
191	1
188	1
187	3
181	1
180	2
177	1
171	1
167	1
163	1
161	2
155	1
151	1
149	1
148	1
146	1
143	1
137	2
136	1
129	1
118	1
114	1
108	1
106	1
105	2
103	1
83	1
78	1
75	1
68	1
67	2
66	2
64	1
61	1
55	1
54	1
